NAME : N101P9.766.tour
COMMENT : Cost = 0_766
COMMENT : Found by LKH [Keld Helsgaun] Sun Sep 17 15:52:35 2017
TYPE : TOUR
DIMENSION : 101
TOUR_SECTION
1
95
52
101
27
93
8
97
6
20
64
60
50
15
35
83
43
72
55
96
58
9
74
26
61
86
75
54
77
4
67
40
29
23
69
3
21
44
87
16
38
100
36
80
78
53
56
66
25
48
33
10
14
17
45
32
73
34
46
31
19
7
99
88
65
81
76
42
68
89
24
41
85
22
98
63
59
82
39
57
90
18
37
70
94
47
30
71
49
91
79
11
2
13
12
51
28
62
84
92
5
-1
EOF
